c description: Perfect Matching Principle on 
c generator: CNFgen (0.9.0)
c copyright: (C) 2012-2020 Massimo Lauria <massimo.lauria@uniroma1.it>
c url: https://massimolauria.net/cnfgen
c
p cnf 60 255
-1 -2 0
-1 -3 0
-1 -4 0
-2 -3 0
-2 -4 0
-3 -4 0
1 2 3 4 0
-5 -6 0
-5 -7 0
-5 -8 0
-6 -7 0
-6 -8 0
-7 -8 0
5 6 7 8 0
-9 -10 0
-9 -11 0
-10 -11 0
9 10 11 0
-12 -13 0
-12 -14 0
-12 -15 0
-13 -14 0
-13 -15 0
-14 -15 0
12 13 14 15 0
-9 -12 0
-9 -16 0
-9 -17 0
-9 -18 0
-9 -19 0
-12 -16 0
-12 -17 0
-12 -18 0
-12 -19 0
-16 -17 0
-16 -18 0
-16 -19 0
-17 -18 0
-17 -19 0
-18 -19 0
9 12 16 17 18 19 0
-20 -21 0
-20 -22 0
-20 -23 0
-20 -24 0
-20 -25 0
-20 -26 0
-21 -22 0
-21 -23 0
-21 -24 0
-21 -25 0
-21 -26 0
-22 -23 0
-22 -24 0
-22 -25 0
-22 -26 0
-23 -24 0
-23 -25 0
-23 -26 0
-24 -25 0
-24 -26 0
-25 -26 0
20 21 22 23 24 25 26 0
-1 -5 0
-1 -27 0
-1 -28 0
-1 -29 0
-1 -30 0
-1 -31 0
-5 -27 0
-5 -28 0
-5 -29 0
-5 -30 0
-5 -31 0
-27 -28 0
-27 -29 0
-27 -30 0
-27 -31 0
-28 -29 0
-28 -30 0
-28 -31 0
-29 -30 0
-29 -31 0
-30 -31 0
1 5 27 28 29 30 31 0
-6 -32 0
-6 -33 0
-6 -34 0
-32 -33 0
-32 -34 0
-33 -34 0
6 32 33 34 0
-20 -27 0
-20 -35 0
-20 -36 0
-20 -37 0
-20 -38 0
-27 -35 0
-27 -36 0
-27 -37 0
-27 -38 0
-35 -36 0
-35 -37 0
-35 -38 0
-36 -37 0
-36 -38 0
-37 -38 0
20 27 35 36 37 38 0
-7 -16 0
-7 -21 0
-7 -35 0
-7 -39 0
-7 -40 0
-16 -21 0
-16 -35 0
-16 -39 0
-16 -40 0
-21 -35 0
-21 -39 0
-21 -40 0
-35 -39 0
-35 -40 0
-39 -40 0
7 16 21 35 39 40 0
13 0
-10 -14 0
-10 -28 0
-10 -41 0
-10 -42 0
-10 -43 0
-14 -28 0
-14 -41 0
-14 -42 0
-14 -43 0
-28 -41 0
-28 -42 0
-28 -43 0
-41 -42 0
-41 -43 0
-42 -43 0
10 14 28 41 42 43 0
-22 -29 0
-22 -44 0
-29 -44 0
22 29 44 0
-30 -45 0
-30 -46 0
-45 -46 0
30 45 46 0
-8 -44 0
-8 -47 0
-8 -48 0
-8 -49 0
-44 -47 0
-44 -48 0
-44 -49 0
-47 -48 0
-47 -49 0
-48 -49 0
8 44 47 48 49 0
-17 -23 0
-17 -31 0
-17 -50 0
-17 -51 0
-23 -31 0
-23 -50 0
-23 -51 0
-31 -50 0
-31 -51 0
-50 -51 0
17 23 31 50 51 0
-15 -24 0
-15 -36 0
-15 -41 0
-15 -52 0
-15 -53 0
-24 -36 0
-24 -41 0
-24 -52 0
-24 -53 0
-36 -41 0
-36 -52 0
-36 -53 0
-41 -52 0
-41 -53 0
-52 -53 0
15 24 36 41 52 53 0
-37 -39 0
-37 -50 0
-37 -52 0
-37 -54 0
-37 -55 0
-39 -50 0
-39 -52 0
-39 -54 0
-39 -55 0
-50 -52 0
-50 -54 0
-50 -55 0
-52 -54 0
-52 -55 0
-54 -55 0
37 39 50 52 54 55 0
-18 -42 0
18 42 0
-47 -54 0
-47 -56 0
-54 -56 0
47 54 56 0
-2 -25 0
-2 -48 0
-2 -57 0
-25 -48 0
-25 -57 0
-48 -57 0
2 25 48 57 0
-32 -38 0
-32 -45 0
-38 -45 0
32 38 45 0
58 0
-3 -19 0
-3 -58 0
-3 -59 0
-19 -58 0
-19 -59 0
-58 -59 0
3 19 58 59 0
-56 -59 0
-56 -60 0
-59 -60 0
56 59 60 0
-33 -46 0
-33 -49 0
-33 -57 0
-46 -49 0
-46 -57 0
-49 -57 0
33 46 49 57 0
-4 -26 0
-4 -40 0
-26 -40 0
4 26 40 0
0
-11 -53 0
-11 -55 0
-53 -55 0
11 53 55 0
-34 -43 0
-34 -51 0
-34 -60 0
-43 -51 0
-43 -60 0
-51 -60 0
34 43 51 60 0